* Problem:    gt2-prescaled
* Class:      LP
* Rows:       29
* Columns:    217
* Non-zeros:  405
* Format:     Free MPS
*
NAME gt2-prescaled
ROWS
 N R0000000
 E R0000001
 E R0000002
 E R0000003
 E R0000004
 E R0000005
 E R0000006
 E R0000007
 E R0000008
 E R0000009
 E R0000010
 E R0000011
 E R0000012
 E R0000013
 E R0000014
 E R0000015
 E R0000016
 E R0000017
 E R0000018
 E R0000019
 E R0000020
 E R0000021
 E R0000022
 E R0000023
 E R0000024
 E R0000025
 E R0000026
 E R0000027
 E R0000028
 E R0000029
COLUMNS
 c0 R0000000 105954.90144 R0000013 29.472851584
 c0 R0000001 -1473.642579
 c1 R0000000 105954.90144 R0000013 29.472851584
 c1 R0000002 -1473.642579
 c2 R0000000 54023.736954 R0000013 29.472851584
 c2 R0000003 -1473.642579
 c3 R0000000 105954.90144 R0000013 29.472851584
 c3 R0000004 -1473.642579
 c4 R0000000 105954.90144 R0000013 29.472851584
 c4 R0000007 -1473.642579
 c5 R0000000 105954.90144 R0000013 29.472851584
 c5 R0000008 -1473.642579
 c6 R0000000 54023.736954 R0000013 29.472851584
 c6 R0000009 -1473.642579
 c7 R0000000 105954.90144 R0000013 29.472851584
 c7 R0000010 -1473.642579
 c8 R0000000 227152.64066 R0000014 73.275045375
 c8 R0000001 -3297.377042
 c9 R0000000 101517.5999 R0000014 32.747612871
 c9 R0000002 -1473.642579
 c10 R0000000 41163.749379 R0000014 32.747612871
 c10 R0000003 -1473.642579
 c11 R0000000 101517.5999 R0000014 32.747612871
 c11 R0000004 -1473.642579
 c12 R0000000 99287.686483 R0000014 73.275045375
 c12 R0000005 -2051.70127
 c13 R0000000 270468.24748 R0000014 34.688758173
 c13 R0000006 -971.2852289
 c14 R0000000 101517.5999 R0000014 32.747612871
 c14 R0000007 -1473.642579
 c15 R0000000 101517.5999 R0000014 32.747612871
 c15 R0000008 -1473.642579
 c16 R0000000 41163.749379 R0000014 32.747612871
 c16 R0000009 -1473.642579
 c17 R0000000 101517.5999 R0000014 32.747612871
 c17 R0000010 -1473.642579
 c18 R0000000 47003.267325 R0000014 34.688758173
 c18 R0000011 -971.2852289
 c19 R0000000 270468.24748 R0000014 34.688758173
 c19 R0000012 -971.2852289
 c20 R0000000 122418.17581 R0000015 45.593361566
 c20 R0000001 -1823.734463
 c21 R0000000 98918.258129 R0000015 36.84106448
 c21 R0000002 -1473.642579
 c22 R0000000 46309.218051 R0000015 36.84106448
 c22 R0000003 -1473.642579
 c23 R0000000 98918.258129 R0000015 36.84106448
 c23 R0000004 -1473.642579
 c24 R0000000 53617.793202 R0000015 45.593361566
 c24 R0000005 -2051.70127
 c25 R0000000 135783.57144 R0000015 21.851234541
 c25 R0000006 -983.3055543
 c26 R0000000 98918.258129 R0000015 36.84106448
 c26 R0000007 -1473.642579
 c27 R0000000 98918.258129 R0000015 36.84106448
 c27 R0000008 -1473.642579
 c28 R0000000 46309.218051 R0000015 36.84106448
 c28 R0000009 -1473.642579
 c29 R0000000 98918.258129 R0000015 36.84106448
 c29 R0000010 -1473.642579
 c30 R0000000 25697.05182 R0000015 21.851234541
 c30 R0000011 -983.3055543
 c31 R0000000 135783.57144 R0000015 21.851234541
 c31 R0000012 -983.3055543
 c32 R0000000 34806.559584 R0000016 11.838965845
 c32 R0000001 -355.1689753
 c33 R0000000 144416.97276 R0000016 49.121419307
 c33 R0000002 -1473.642579
 c34 R0000000 97260.410227 R0000016 49.121419307
 c34 R0000003 -1473.642579
 c35 R0000000 144416.97276 R0000016 49.121419307
 c35 R0000004 -1473.642579
 c36 R0000000 39521.657435 R0000016 19.960433048
 c36 R0000005 -329.3471453
 c37 R0000000 142617.29413 R0000016 19.960433048
 c37 R0000006 -329.3471453
 c38 R0000000 144416.97276 R0000016 49.121419307
 c38 R0000007 -1473.642579
 c39 R0000000 144416.97276 R0000016 49.121419307
 c39 R0000008 -1473.642579
 c40 R0000000 97260.410227 R0000016 49.121419307
 c40 R0000009 -1473.642579
 c41 R0000000 144416.97276 R0000016 49.121419307
 c41 R0000010 -1473.642579
 c42 R0000000 39521.657435 R0000016 19.960433048
 c42 R0000011 -329.3471453
 c43 R0000000 142617.29413 R0000016 19.960433048
 c43 R0000012 -329.3471453
 c44 R0000000 25615.078703 R0000017 8.262928614
 c44 R0000001 -264.4137156
 c45 R0000000 142759.12486 R0000017 46.0513306
 c45 R0000002 -1473.642579
 c46 R0000000 83629.21637 R0000017 46.0513306
 c46 R0000003 -1473.642579
 c47 R0000000 142759.12486 R0000017 46.0513306
 c47 R0000004 -1473.642579
 c48 R0000000 35609.570203 R0000017 18.488873418
 c48 R0000005 -831.9993038
 c49 R0000000 129625.49153 R0000017 18.488873418
 c49 R0000006 -831.9993038
 c50 R0000000 142759.12486 R0000017 46.0513306
 c50 R0000007 -1473.642579
 c51 R0000000 142759.12486 R0000017 46.0513306
 c51 R0000008 -1473.642579
 c52 R0000000 83629.21637 R0000017 46.0513306
 c52 R0000009 -1473.642579
 c53 R0000000 142759.12486 R0000017 46.0513306
 c53 R0000010 -1473.642579
 c54 R0000000 61735.576336 R0000017 32.053777952
 c54 R0000011 -1442.420008
 c55 R0000000 129625.49153 R0000017 18.488873418
 c55 R0000012 -831.9993038
 c56 R0000000 63898.704046 R0000018 20.612485176
 c56 R0000001 -1030.624259
 c57 R0000000 91365.83991 R0000018 29.472851584
 c57 R0000002 -1473.642579
 c58 R0000000 53522.698477 R0000018 29.472851584
 c58 R0000003 -1473.642579
 c59 R0000000 889359.51865 R0000018 286.89016731
 c59 R0000004 -14918.2887
 c60 R0000000 77640.217386 R0000018 39.152908415
 c60 R0000005 -2035.951238
 c61 R0000000 305275.22691 R0000018 39.152908415
 c61 R0000006 -2035.951238
 c62 R0000000 91365.83991 R0000018 29.472851584
 c62 R0000007 -1473.642579
 c63 R0000000 91365.83991 R0000018 29.472851584
 c63 R0000008 -1473.642579
 c64 R0000000 53522.698477 R0000018 29.472851584
 c64 R0000009 -1473.642579
 c65 R0000000 229262.03038 R0000018 73.955493672
 c65 R0000010 -3845.685671
 c66 R0000000 77640.217386 R0000018 39.152908415
 c66 R0000011 -2035.951238
 c67 R0000000 305275.22691 R0000018 39.152908415
 c67 R0000012 -2035.951238
 c68 R0000000 8813.8604702 R0000019 4.5762515421
 c68 R0000005 -205.9313194
 c69 R0000000 153199.00537 R0000019 21.851234541
 c69 R0000006 -983.3055543
 c70 R0000000 42085.477726 R0000019 21.851234541
 c70 R0000011 -983.3055543
 c71 R0000000 153199.00537 R0000019 21.851234541
 c71 R0000012 -983.3055543
 c72 R0000000 103824.81808 R0000020 33.4918768
 c72 R0000001 -1507.134456
 c73 R0000000 101517.5999 R0000020 32.747612871
 c73 R0000002 -1473.642579
 c74 R0000000 41163.749379 R0000020 32.747612871
 c74 R0000003 -1473.642579
 c75 R0000000 458524.06077 R0000020 147.91098734
 c75 R0000004 -6508.083443
 c76 R0000000 101517.5999 R0000020 32.747612871
 c76 R0000007 -1473.642579
 c77 R0000000 101517.5999 R0000020 32.747612871
 c77 R0000008 -1473.642579
 c78 R0000000 41163.749379 R0000020 32.747612871
 c78 R0000009 -1473.642579
 c79 R0000000 1778719.0373 R0000020 573.78033461
 c79 R0000010 -25246.33472
 c80 R0000000 2448 R0000021 1
 c80 R0000001 -2534
 c81 R0000000 2448 R0000021 1
 c81 R0000002 -2534
 c82 R0000000 1652 R0000021 1
 c82 R0000003 -2534
 c83 R0000000 2448 R0000021 1
 c83 R0000004 -2534
 c84 R0000000 1652 R0000021 1
 c84 R0000005 -2519
 c85 R0000000 5954 R0000021 1
 c85 R0000006 -2519
 c86 R0000000 2448 R0000021 1
 c86 R0000007 -2534
 c87 R0000000 2448 R0000021 1
 c87 R0000008 -2534
 c88 R0000000 1652 R0000021 1
 c88 R0000009 -2534
 c89 R0000000 2448 R0000021 1
 c89 R0000010 -2534
 c90 R0000000 1652 R0000021 1
 c90 R0000011 -2519
 c91 R0000000 5954 R0000021 1
 c91 R0000012 -2519
 c92 R0000022 446.8164493 R0000001 -9829.961885
 c93 R0000023 30.376293944 R0000001 -1701.072461
 c94 R0000024 12.766184266 R0000001 -382.985528
 c95 R0000025 76.953277991 R0000001 -2308.59834
 c96 R0000026 9.7597742803 R0000001 -224.4748084
 c97 R0000027 9.0447725015 R0000001 -379.8804451
 c98 R0000028 30.376293944 R0000001 -1701.072461
 c99 R0000029 13.567158752 R0000001 -379.8804451
 c100 R0000022 66.9837536 R0000002 -1473.642579
 c101 R0000023 26.315046057 R0000002 -1473.642579
 c102 R0000024 49.121419307 R0000002 -1473.642579
 c103 R0000025 49.121419307 R0000002 -1473.642579
 c104 R0000026 64.071416487 R0000002 -1473.642579
 c105 R0000027 35.086728076 R0000002 -1473.642579
 c106 R0000028 26.315046057 R0000002 -1473.642579
 c107 R0000029 52.630092114 R0000002 -1473.642579
 c108 R0000022 66.9837536 R0000003 -1473.642579
 c109 R0000023 26.315046057 R0000003 -1473.642579
 c110 R0000024 49.121419307 R0000003 -1473.642579
 c111 R0000025 49.121419307 R0000003 -1473.642579
 c112 R0000026 64.071416487 R0000003 -1473.642579
 c113 R0000027 35.086728076 R0000003 -1473.642579
 c114 R0000028 26.315046057 R0000003 -1473.642579
 c115 R0000029 52.630092114 R0000003 -1473.642579
 c116 R0000022 66.9837536 R0000004 -1473.642579
 c117 R0000023 26.315046057 R0000004 -1473.642579
 c118 R0000024 49.121419307 R0000004 -1473.642579
 c119 R0000025 49.121419307 R0000004 -1473.642579
 c120 R0000026 64.071416487 R0000004 -1473.642579
 c121 R0000027 35.086728076 R0000004 -1473.642579
 c122 R0000028 26.315046057 R0000004 -1473.642579
 c123 R0000029 52.630092114 R0000004 -1473.642579
 c124 R0000022 665.59944305 R0000005 -16639.98608
 c125 R0000023 51.214269004 R0000005 -1741.285146
 c126 R0000024 19.017126944 R0000005 -475.4281736
 c127 R0000025 129.74281481 R0000005 -2465.113481
 c128 R0000026 5.5236468303 R0000005 -309.3242225
 c129 R0000027 12.558480058 R0000005 -426.988322
 c130 R0000028 51.214269004 R0000005 -1741.285146
 c131 R0000029 25.599978579 R0000005 -639.9994645
 c132 R0000022 665.59944305 R0000006 -16639.98608
 c133 R0000023 51.214269004 R0000006 -1741.285146
 c134 R0000024 19.017126944 R0000006 -475.4281736
 c135 R0000025 129.74281481 R0000006 -2465.113481
 c136 R0000026 5.5236468303 R0000006 -309.3242225
 c137 R0000027 12.558480058 R0000006 -426.988322
 c138 R0000028 51.214269004 R0000006 -1741.285146
 c139 R0000029 25.599978579 R0000006 -639.9994645
 c140 R0000022 66.9837536 R0000007 -1473.642579
 c141 R0000023 26.315046057 R0000007 -1473.642579
 c142 R0000024 49.121419307 R0000007 -1473.642579
 c143 R0000025 49.121419307 R0000007 -1473.642579
 c144 R0000026 64.071416487 R0000007 -1473.642579
 c145 R0000027 35.086728076 R0000007 -1473.642579
 c146 R0000028 26.315046057 R0000007 -1473.642579
 c147 R0000029 52.630092114 R0000007 -1473.642579
 c148 R0000022 66.9837536 R0000008 -1473.642579
 c149 R0000023 26.315046057 R0000008 -1473.642579
 c150 R0000024 49.121419307 R0000008 -1473.642579
 c151 R0000025 49.121419307 R0000008 -1473.642579
 c152 R0000026 64.071416487 R0000008 -1473.642579
 c153 R0000027 35.086728076 R0000008 -1473.642579
 c154 R0000028 26.315046057 R0000008 -1473.642579
 c155 R0000029 52.630092114 R0000008 -1473.642579
 c156 R0000022 66.9837536 R0000009 -1473.642579
 c157 R0000023 26.315046057 R0000009 -1473.642579
 c158 R0000024 49.121419307 R0000009 -1473.642579
 c159 R0000025 49.121419307 R0000009 -1473.642579
 c160 R0000026 64.071416487 R0000009 -1473.642579
 c161 R0000027 35.086728076 R0000009 -1473.642579
 c162 R0000028 26.315046057 R0000009 -1473.642579
 c163 R0000029 52.630092114 R0000009 -1473.642579
 c164 R0000022 66.9837536 R0000010 -1473.642579
 c165 R0000023 26.315046057 R0000010 -1473.642579
 c166 R0000024 49.121419307 R0000010 -1473.642579
 c167 R0000025 49.121419307 R0000010 -1473.642579
 c168 R0000026 64.071416487 R0000010 -1473.642579
 c169 R0000027 35.086728076 R0000010 -1473.642579
 c170 R0000028 26.315046057 R0000010 -1473.642579
 c171 R0000029 52.630092114 R0000010 -1473.642579
 c172 R0000022 665.59944305 R0000011 -16639.98608
 c173 R0000023 51.214269004 R0000011 -1741.285146
 c174 R0000024 19.017126944 R0000011 -475.4281736
 c175 R0000025 129.74281481 R0000011 -2465.113481
 c176 R0000026 9.5762324173 R0000011 -536.2690154
 c177 R0000027 21.772377477 R0000011 -740.2608342
 c178 R0000028 51.214269004 R0000011 -1741.285146
 c179 R0000029 44.382154088 R0000011 -1109.553852
 c180 R0000022 665.59944305 R0000012 -16639.98608
 c181 R0000023 51.214269004 R0000012 -1741.285146
 c182 R0000024 19.017126944 R0000012 -475.4281736
 c183 R0000025 129.74281481 R0000012 -2465.113481
 c184 R0000026 5.5236468303 R0000012 -309.3242225
 c185 R0000027 12.558480058 R0000012 -426.988322
 c186 R0000028 51.214269004 R0000012 -1741.285146
 c187 R0000029 25.599978579 R0000012 -639.9994645
 c188 R0000001 147.91098734
 c189 R0000002 1473.6425792
 c190 R0000003 1473.6425792
 c191 R0000004 1473.6425792
 c192 R0000005 166.39986076
 c193 R0000006 288.48400157
 c194 R0000007 1473.6425792
 c195 R0000008 1473.6425792
 c196 R0000009 1473.6425792
 c197 R0000010 1473.6425792
 c198 R0000011 166.39986076
 c199 R0000012 166.39986076
 c200 R0000013 29.472851584
 c201 R0000014 5.9428521701
 c202 R0000015 3.6977746836
 c203 R0000016 4.9303662448
 c204 R0000017 4.6222183545
 c205 R0000018 16.7459384
 c206 R0000019 3.6977746836
 c207 R0000020 33.4918768
 c208 R0000021 1
 c209 R0000022 38.851409154
 c210 R0000023 10.246077404
 c211 R0000024 19.126011154
 c212 R0000025 19.126011154
 c213 R0000026 6.4309124932
 c214 R0000027 3.5216901749
 c215 R0000028 2.6412676311
 c216 R0000029 5.2825352623
RHS
 RHS1 R0000001 -200 R0000002 -80
 RHS1 R0000003 -300 R0000004 -250
 RHS1 R0000005 -61 R0000006 -6064
 RHS1 R0000007 -94 R0000008 -67
 RHS1 R0000009 -450 R0000010 -231
 RHS1 R0000011 -76 R0000013 9
 RHS1 R0000014 15 R0000015 14
 RHS1 R0000016 1 R0000017 6
 RHS1 R0000018 8 R0000019 5
 RHS1 R0000020 12 R0000021 5
 RHS1 R0000022 6 R0000023 4
 RHS1 R0000024 9 R0000025 5
 RHS1 R0000026 4 R0000027 2
 RHS1 R0000028 2 R0000029 1
BOUNDS
 UP BND1 c0 0.3053657694
 UP BND1 c1 0.3053657694
 UP BND1 c2 0.3053657694
 UP BND1 c3 0.3053657694
 UP BND1 c4 0.3053657694
 UP BND1 c5 0.3053657694
 UP BND1 c6 0.3053657694
 UP BND1 c7 0.3053657694
 UP BND1 c8 0.2047081639
 UP BND1 c9 0.4580486541
 UP BND1 c10 0.4580486541
 UP BND1 c11 0.4580486541
 UP BND1 c12 0.2047081639
 UP BND1 c13 0.432416748
 UP BND1 c14 0.4580486541
 UP BND1 c15 0.4580486541
 UP BND1 c16 0.4580486541
 UP BND1 c17 0.4580486541
 UP BND1 c18 0.432416748
 UP BND1 c19 0.432416748
 UP BND1 c20 0.3070622459
 UP BND1 c21 0.3800107352
 UP BND1 c22 0.3800107352
 UP BND1 c23 0.3800107352
 UP BND1 c24 0.3070622459
 UP BND1 c25 0.6406960657
 UP BND1 c26 0.3800107352
 UP BND1 c27 0.3800107352
 UP BND1 c28 0.3800107352
 UP BND1 c29 0.3800107352
 UP BND1 c30 0.6406960657
 UP BND1 c31 0.6406960657
 UP BND1 c32 0.0844668371
 UP BND1 c33 0.020357718
 UP BND1 c34 0.020357718
 UP BND1 c35 0.020357718
 UP BND1 c36 0.0500991135
 UP BND1 c37 0.0500991135
 UP BND1 c38 0.020357718
 UP BND1 c39 0.020357718
 UP BND1 c40 0.020357718
 UP BND1 c41 0.020357718
 UP BND1 c42 0.0500991135
 UP BND1 c43 0.0500991135
 UP BND1 c44 0.726134798
 UP BND1 c45 0.1302893949
 UP BND1 c46 0.1302893949
 UP BND1 c47 0.1302893949
 UP BND1 c48 0.3245195023
 UP BND1 c49 0.3245195023
 UP BND1 c50 0.1302893949
 UP BND1 c51 0.1302893949
 UP BND1 c52 0.1302893949
 UP BND1 c53 0.1302893949
 UP BND1 c54 0.1871854235
 UP BND1 c55 0.3245195023
 UP BND1 c56 0.3881142876
 UP BND1 c57 0.2714362395
 UP BND1 c58 0.2714362395
 UP BND1 c59 0.0278852359
 UP BND1 c60 0.2043270941
 UP BND1 c61 0.2043270941
 UP BND1 c62 0.2714362395
 UP BND1 c63 0.2714362395
 UP BND1 c64 0.2714362395
 UP BND1 c65 0.1081731674
 UP BND1 c66 0.2043270941
 UP BND1 c67 0.2043270941
 UP BND1 c68 1.0925972827
 UP BND1 c69 0.2288200234
 UP BND1 c70 0.2288200234
 UP BND1 c71 0.2288200234
 UP BND1 c72 0.3582958361
 UP BND1 c73 0.3664389233
 UP BND1 c74 0.3664389233
 UP BND1 c75 0.0811298756
 UP BND1 c76 0.3664389233
 UP BND1 c77 0.3664389233
 UP BND1 c78 0.3664389233
 UP BND1 c79 0.0209139269
 UP BND1 c80 5
 UP BND1 c81 5
 UP BND1 c82 5
 UP BND1 c83 5
 UP BND1 c84 5
 UP BND1 c85 5
 UP BND1 c86 5
 UP BND1 c87 5
 UP BND1 c88 5
 UP BND1 c89 5
 UP BND1 c90 5
 UP BND1 c91 5
 UP BND1 c92 0.0134283328
 UP BND1 c93 0.1316816333
 UP BND1 c94 0.7049874741
 UP BND1 c95 0.0649744901
 UP BND1 c96 0.4098455441
 UP BND1 c97 0.2211222007
 UP BND1 c98 0.0658408166
 UP BND1 c99 0.0737074002
 UP BND1 c100 0.089573959
 UP BND1 c101 0.1520042941
 UP BND1 c102 0.1832194616
 UP BND1 c103 0.1017885898
 UP BND1 c104 0.0624303351
 UP BND1 c105 0.0570016103
 UP BND1 c106 0.076002147
 UP BND1 c107 0.0190005368
 UP BND1 c108 0.089573959
 UP BND1 c109 0.1520042941
 UP BND1 c110 0.1832194616
 UP BND1 c111 0.1017885898
 UP BND1 c112 0.0624303351
 UP BND1 c113 0.0570016103
 UP BND1 c114 0.076002147
 UP BND1 c115 0.0190005368
 UP BND1 c116 0.089573959
 UP BND1 c117 0.1520042941
 UP BND1 c118 0.1832194616
 UP BND1 c119 0.1017885898
 UP BND1 c120 0.0624303351
 UP BND1 c121 0.0570016103
 UP BND1 c122 0.076002147
 UP BND1 c123 0.0190005368
 UP BND1 c124 0.0090144306
 UP BND1 c125 0.0781032333
 UP BND1 c126 0.4732576075
 UP BND1 c127 0.0385377796
 UP BND1 c128 0.7241592598
 UP BND1 c129 0.159254941
 UP BND1 c130 0.0390516166
 UP BND1 c131 0.0390625327
 UP BND1 c132 0.0090144306
 UP BND1 c133 0.0781032333
 UP BND1 c134 0.4732576075
 UP BND1 c135 0.0385377796
 UP BND1 c136 0.7241592598
 UP BND1 c137 0.159254941
 UP BND1 c138 0.0390516166
 UP BND1 c139 0.0390625327
 UP BND1 c140 0.089573959
 UP BND1 c141 0.1520042941
 UP BND1 c142 0.1832194616
 UP BND1 c143 0.1017885898
 UP BND1 c144 0.0624303351
 UP BND1 c145 0.0570016103
 UP BND1 c146 0.076002147
 UP BND1 c147 0.0190005368
 UP BND1 c148 0.089573959
 UP BND1 c149 0.1520042941
 UP BND1 c150 0.1832194616
 UP BND1 c151 0.1017885898
 UP BND1 c152 0.0624303351
 UP BND1 c153 0.0570016103
 UP BND1 c154 0.076002147
 UP BND1 c155 0.0190005368
 UP BND1 c156 0.089573959
 UP BND1 c157 0.1520042941
 UP BND1 c158 0.1832194616
 UP BND1 c159 0.1017885898
 UP BND1 c160 0.0624303351
 UP BND1 c161 0.0570016103
 UP BND1 c162 0.076002147
 UP BND1 c163 0.0190005368
 UP BND1 c164 0.089573959
 UP BND1 c165 0.1520042941
 UP BND1 c166 0.1832194616
 UP BND1 c167 0.1017885898
 UP BND1 c168 0.0624303351
 UP BND1 c169 0.0570016103
 UP BND1 c170 0.076002147
 UP BND1 c171 0.0190005368
 UP BND1 c172 0.0090144306
 UP BND1 c173 0.0781032333
 UP BND1 c174 0.4732576075
 UP BND1 c175 0.0385377796
 UP BND1 c176 0.4177008061
 UP BND1 c177 0.0918595134
 UP BND1 c178 0.0390516166
 UP BND1 c179 0.0225315788
 UP BND1 c180 0.0090144306
 UP BND1 c181 0.0781032333
 UP BND1 c182 0.4732576075
 UP BND1 c183 0.0385377796
 UP BND1 c184 0.7241592598
 UP BND1 c185 0.159254941
 UP BND1 c186 0.0390516166
 UP BND1 c187 0.0390625327
ENDATA
